104 300 168 42 288 86 15 182 69 224 111 294 126 294 136 28 18 158 240 146 133 280 229 172 202 71 106 151 223 74 254 190 177 173 232 217 11 246 150 79 221 260 124 47 5 259 126 22 168 117 168 300 149 148 223 50 218 28 252 192 154 257 82 82 129 65 298 139 62 147 269 283 159 144 81 215 102 206 237 269 75 156 20 223 55 295 24 24 22 275 268 175 231 101 257 111 165 6 2 278 153 270 260 63 114 92 